outputs/case_133.model.txt
dismiss_director_or_supervisor_or_suspend_duties = False
item_7_met = True
other_necessary_measures = False
broker_company_shareholding_in_insurer_percent = 0
insurer_shareholding_in_broker_company_percent = 0
dismiss_manager_or_staff = False
applicant_phone = False
notify_registration_authority = False
insured_mobile = False
insured_email = True
applicant_other_contact = False
conflict_info_disclosed_to_client = True
restriction_on_business_scope = False
insured_other_contact = False
policy_issued_electronically = False
applicant_mobile = True
audit_committee_established = False
applicant_email = True
insured_phone = True
contact_info_provided_to_insurer = True
internal_control_includes_audit_committee_management = False
property_insurance = True
fail_to_fill_solicitation_report_truthfully = False
coerce_or_induce_or_restrict_contract_freedom = False
internal_operation_implemented = True
other_actions_damaging_insurance_image = False
client_needs_and_risk_assessed = True
exercise_duty_of_care = True
includes_protection_for_elderly_clients = True
item_3_met = True
internal_control_requirements_met = True
conflict_of_interest_disclosed = True
violation = False
internal_operation_specified = True
internal_control_executed = True
authorize_others_to_operate = False
solicitation_handling_minimum_items_met = True
transfer_policy_documents_to_unauthorized_person = False
item_10_met = True
use_unapproved_advertisement_content = False
electronic_policy_contact_info_met = True
internal_control_established = True
maintain_insured_interest = True
penalty_167_3 = False
client_understanding_and_report_met = True
audit_committee_inclusion_met = True
fail_to_cancel_license_within_deadline = False
induce_policy_surrender_or_transfer_or_loan = False
pay_commission_to_non_actual_solicitor = False
solicitation_handling_system_defined = True
submit_false_or_incomplete_reports = False
contract_with_unregistered_insurer = False
solicitation_handling_system_executed = True
documents_retained_and_archived = True
penalty_167_2 = False
spread_false_information_disturb_financial_order = False
violate_165_1 = False
item_5_met = True
violation_penalty_scope = False
hold_positions_in_insurance_or_association = False
other_violations_of_rules_or_laws = False
internal_control_procedures_defined = True
item_11_met = True
prohibited_acts_complied = True
client_basic_info_collected = True
induce_contract_termination_or_loan_payment = False
violate_163_5_applied = False
fail_to_reappoint_broker_after_resignation = False
violation_167_3 = False
violation_167_2 = False
director_dismissal_notification = True
item_1_met = True
violate_163_7 = False
internal_control_reviewed_timely = True
audit_system_executed = True
misleading_advertisement_or_recruitment = False
charge_illegal_fees_or_commissions = False
employ_unqualified_personnel = False
illegal_insurance_payments = False
sell_unapproved_foreign_policy_discount_products = False
disclose_main_content_and_rights = True
written_analysis_report_provided = True
audit_system_established = True
fail_to_confirm_suitability_for_elderly_clients = False
duty_of_care_and_loyalty_met = True
violate_financial_or_business_management_rules = False
misappropriate_insurance_funds = False
item_8_met = True
unauthorized_suspend_or_resume_or_terminate_business = False
item_6_met = True
item_4_met = True
convicted_of_fraud_or_breach_or_forgery = False
item_2_met = True
internal_operation_specification_met = True
false_report_on_license_application = False
fail_to_report_to_broker_association = False
penalty = False
solicitation_handling_system_established = True
document_retention_met = True
operate_outside_license_scope = False
conceal_important_contract_info = False
item_9_met = True
license_used_by_others = False